(set-info :smt-lib-version 2.7)
(set-logic ALL)
(set-info :source |
Generated on: 2026-06-22
Generator: pog2smtlib-2.7 github.com/CLEARSY/pog2smtlib-2.7 (-l HO_ALL -rpX)
Application: Discharging a proof obligation generated by aTelierB from an anonymized B machine
Target solver: CVC5
Time limit: 1200.0
|)
(set-info :license "www.gnu.org/licenses/gpl-3.0.en.html")
(set-info :category "industrial")
(set-info :status unknown)

(declare-datatype C (par (T1 T2) ((maplet (fst T1) (snd T2)))))
(define-sort |Z| () Int)
(declare-sort P 1)
(define-sort |(Z x Z)| () (C |Z| |Z|))
(define-sort |POW Z| () (P |Z|))
(define-sort |POW (Z x Z)| () (P |(Z x Z)|))
(declare-fun |set.in Z| (|Z| |POW Z|) Bool)
(declare-fun |set.in (Z x Z)| (|(Z x Z)| |POW (Z x Z)|) Bool)
(define-sort |POW POW (Z x Z)| () (P |POW (Z x Z)|))
(declare-fun |rel.range Z Z| (|POW (Z x Z)|) |POW Z|)
(assert (!
  (forall ((r |POW (Z x Z)|) (e |Z|))
    (= (|set.in Z| e (|rel.range Z Z| r))
       (exists ((x |Z|)) (|set.in (Z x Z)| (maplet x e) r))))
  :named |ax:set.in.range (Z x Z)|))
(declare-fun |set.in POW (Z x Z)| (|POW (Z x Z)| |POW POW (Z x Z)|) Bool)
(assert (!
  (forall ((s |POW Z|) (t |POW Z|))
    (=
      (= s t)
      (forall ((e |Z|)) (= (|set.in Z| e s) (|set.in Z| e t)))))
  :named |ax.set.eq Z|))
(declare-fun |surjections Z Z| (|POW Z| |POW Z|) |POW POW (Z x Z)|)
(assert (!
  (forall ((X |POW Z|) (Y |POW Z|))
    (forall ((f |POW (Z x Z)|))
      (= (|set.in POW (Z x Z)| f (|surjections Z Z| X Y))
         (= (|rel.range Z Z| f) Y)
      )))
  :named |ax:set.in.surjections (Z x Z)|))
(declare-fun |injections Z Z| (|POW Z| |POW Z|) |POW POW (Z x Z)|)
(assert (!
  (forall ((X |POW Z|) (Y |POW Z|) (f |POW (Z x Z)|))
     (= (|set.in POW (Z x Z)| f (|injections Z Z| X Y))
        (forall ((p |(Z x Z)|) (q |(Z x Z)|))
          (=> (and (|set.in (Z x Z)| p f) (|set.in (Z x Z)| q f) (= (snd p) (snd q)))
              (= (fst p) (fst q))))))
  :named |ax:set.in.injections (Z x Z)|))
(define-sort |POW POW Z| () (P |POW Z|))
(declare-datatype Cardinals ( ( Infinite ) ( Finite ( Value Int ) )))
(declare-fun |interval| (|Z| |Z|) |POW Z|)
 (assert (!
    (forall ((l |Z|) (u |Z|) (e |Z|))
        (= (|set.in Z| e (|interval| l u))
            (and (<= l e) (<= e u))))
    :named |ax.set.in.interval|))
(declare-fun |bijections Z Z| (|POW Z| |POW Z|) |POW POW (Z x Z)|)
(assert (!
  (forall ((X |POW Z|) (Y |POW Z|))
    (forall ((f |POW (Z x Z)|))
      (= (|set.in POW (Z x Z)| f (|bijections Z Z| X Y))
         (and (|set.in POW (Z x Z)| f (|injections Z Z| X Y))
              (|set.in POW (Z x Z)| f (|surjections Z Z| X Y))))))
  :named |ax:set.in.bijections (Z x Z)|))
(declare-fun |set.in POW Z| (|POW Z| |POW POW Z|) Bool)
(declare-fun |set.subseteq Z| (|POW Z| |POW Z|) Bool)
(assert (!
    (forall ((s |POW Z|) (t |POW Z|))
      (=
        (|set.subseteq Z| s t)
        (forall ((e |Z|)) (=> (|set.in Z| e s) (|set.in Z| e t)))
      )
    )
    :named |ax.set.subseteq Z|))
(declare-fun |card Z| (|POW Z|) Cardinals)
(assert (!
  (forall ((s |POW Z|))
    (or (= (|card Z| s) Infinite)
        (exists ((f |POW (Z x Z)|))
          (|set.in POW (Z x Z)| f (|bijections Z Z| s (|interval| 1 (Value (|card Z| s))))))))
  :named |ax.card.definition Z|))
(declare-fun |sub-sets Z| (|POW Z|) |POW POW Z|)
(assert (!
  (forall ((s |POW Z|) (t |POW Z|))
    (=
      (|set.in POW Z| s (|sub-sets Z| t))
      (|set.subseteq Z| s t)))
  :named |ax.sub-sets Z|))
(define-const MAXINT |Z| 2147483647)
(declare-const s0 |POW Z|)
(declare-fun |set.inter Z| (|POW Z| |POW Z|) |POW Z|)
(assert (!
  (forall ((e |Z|) (s |POW Z|) (t |POW Z|))
    (= (|set.in Z| e (|set.inter Z| s t))
       (and (|set.in Z| e s) (|set.in Z| e t))))
  :named |ax.set.in.inter Z|))
(declare-const NATURAL |POW Z|)
(assert (!
  (forall ((e |Z|)) (= (|set.in Z| e NATURAL) (<= 0 e)))
  :named |ax.set.in.NATURAL|))
(declare-fun |finite sub-sets Z| (|POW Z|) |POW POW Z|)
(assert (!
  (forall ((s |POW Z|) (t |POW Z|))
    (= (|set.in POW Z| s (|finite sub-sets Z| t))
       (and
         (|set.in POW Z| s (|sub-sets Z| t))
         (not (= (|card Z| s) Infinite)))))
  :named |ax.finite sub-sets Z|))
(declare-const NAT |POW Z|)
(assert (!
  (forall ((e |Z|)) (= (|set.in Z| e NAT) (and (<= 0 e) (<= e MAXINT))))
  :named |ax.set.in.NAT|))
(declare-const |set.empty Z| |POW Z|)
(assert (!
  (forall ((e |Z|)) (not (|set.in Z| e |set.empty Z|)))
  :named |ax.set.in.empty Z|))
(assert (!
  (|set.subseteq Z| s0 NAT)
  :named |Local_Hyp:0|))
(assert (!
  (not
  (= s0 |set.empty Z|))
  :named |Local_Hyp:1|))
(assert (!
  (not
    (|set.in POW Z| (|set.inter Z| s0 NATURAL) (|finite sub-sets Z| NATURAL)))
  :named |Goal|))
(check-sat)
(exit)
